p cnf 1408 2939
1 0
2 0
3 0
4 0
5 0
6 0
7 0
8 0
9 0
10 0
11 0
12 0
13 0
14 0
15 0
16 0
17 0
18 0
19 0
20 0
21 0
22 0
23 0
24 0
25 0
26 0
27 0
28 0
29 0
30 0
31 0
32 0
33 0
34 0
35 0
36 0
37 0
38 0
39 0
40 0
41 0
42 0
43 0
44 0
45 0
46 0
47 0
48 0
49 0
50 0
-51 0
-52 0
-53 0
-54 0
-55 0
-56 0
-57 0
-58 0
-59 0
-60 0
-61 0
-62 0
-63 0
-64 0
-65 0
-66 0
-67 0
-68 0
-69 0
-70 0
-71 0
-72 0
-73 0
-74 0
-75 0
-76 0
-77 0
-78 0
-79 0
-80 0
-81 0
-82 0
-83 0
-84 0
-85 0
-86 0
-87 0
-88 0
-89 0
-90 0
-91 0
-92 0
-93 0
-94 0
-95 0
-96 0
-97 0
-98 0
-99 0
-100 0
-101 102 0
102 -103 0
101 103 -102 0
1 -102 0
-1 102 0
-104 105 0
-106 105 0
104 106 -105 0
101 -105 0
-101 105 0
-107 108 0
-109 108 0
107 109 -108 0
104 -108 0
-104 108 0
-110 111 0
-112 111 0
110 112 -111 0
107 -111 0
-107 111 0
-113 114 0
114 -115 0
113 115 -114 0
110 -114 0
-110 114 0
-116 117 0
117 -118 0
116 118 -117 0
113 -117 0
-113 117 0
-119 120 0
120 -121 0
119 121 -120 0
116 -120 0
-116 120 0
-122 123 0
123 -124 0
122 124 -123 0
119 -123 0
-119 123 0
-125 126 0
126 -127 0
125 127 -126 0
122 -126 0
-122 126 0
-128 129 0
-130 129 0
128 130 -129 0
125 -129 0
-125 129 0
-118 131 0
-121 131 0
-124 131 0
-127 131 0
-130 131 0
-132 131 0
133 0
128 -131 0
-128 131 0
-134 135 0
-136 135 0
134 136 -135 0
2 -135 0
-2 135 0
-137 138 0
-139 138 0
137 139 -138 0
134 -138 0
-134 138 0
-140 141 0
141 -142 0
140 142 -141 0
137 -141 0
-137 141 0
-143 144 0
-145 144 0
143 145 -144 0
140 -144 0
-140 144 0
-146 147 0
147 -148 0
146 148 -147 0
143 -147 0
-143 147 0
-149 150 0
150 -151 0
149 151 -150 0
146 -150 0
-146 150 0
-152 153 0
-154 153 0
152 154 -153 0
149 -153 0
-149 153 0
-145 155 0
-148 155 0
-151 155 0
-154 155 0
-156 155 0
145 148 151 154 156 -155 0
152 -155 0
-152 155 0
-157 158 0
158 -159 0
157 159 -158 0
3 -158 0
-3 158 0
-160 161 0
-162 161 0
160 162 -161 0
157 -161 0
-157 161 0
-163 164 0
164 -165 0
163 165 -164 0
160 -164 0
-160 164 0
-166 167 0
167 -168 0
166 168 -167 0
163 -167 0
-163 167 0
-169 170 0
170 -171 0
169 171 -170 0
166 -170 0
-166 170 0
-172 173 0
173 -174 0
172 174 -173 0
169 -173 0
-169 173 0
-175 176 0
-177 176 0
175 177 -176 0
172 -176 0
-172 176 0
-178 179 0
-180 179 0
178 180 -179 0
175 -179 0
-175 179 0
-181 182 0
-183 182 0
181 183 -182 0
178 -182 0
-178 182 0
-184 185 0
185 -186 0
184 186 -185 0
181 -185 0
-181 185 0
-174 187 0
-177 187 0
-180 187 0
-183 187 0
-186 187 0
-188 187 0
189 0
184 -187 0
-184 187 0
-190 191 0
191 -192 0
190 192 -191 0
4 -191 0
-4 191 0
-193 194 0
194 -195 0
193 195 -194 0
190 -194 0
-190 194 0
-196 197 0
197 -198 0
196 198 -197 0
193 -197 0
-193 197 0
-199 200 0
-201 200 0
199 201 -200 0
196 -200 0
-196 200 0
-202 203 0
203 -204 0
202 204 -203 0
199 -203 0
-199 203 0
-205 206 0
206 -207 0
205 207 -206 0
202 -206 0
-202 206 0
-208 209 0
-210 209 0
208 210 -209 0
205 -209 0
-205 209 0
-211 212 0
-213 212 0
211 213 -212 0
208 -212 0
-208 212 0
-214 215 0
-216 215 0
214 216 -215 0
211 -215 0
-211 215 0
-217 218 0
218 -219 0
217 219 -218 0
214 -218 0
-214 218 0
-207 220 0
-210 220 0
-213 220 0
-216 220 0
-219 220 0
-221 220 0
222 0
217 -220 0
-217 220 0
-223 224 0
224 -225 0
223 225 -224 0
5 -224 0
-5 224 0
-226 227 0
227 -228 0
226 228 -227 0
223 -227 0
-223 227 0
-229 230 0
-231 230 0
229 231 -230 0
226 -230 0
-226 230 0
-232 233 0
233 -234 0
232 234 -233 0
229 -233 0
-229 233 0
-235 236 0
-237 236 0
235 237 -236 0
232 -236 0
-232 236 0
-238 239 0
-240 239 0
238 240 -239 0
235 -239 0
-235 239 0
-241 242 0
242 -243 0
241 243 -242 0
238 -242 0
-238 242 0
-244 245 0
245 -246 0
244 246 -245 0
241 -245 0
-241 245 0
-237 247 0
-240 247 0
-243 247 0
-246 247 0
-248 247 0
237 240 243 246 248 -247 0
244 -247 0
-244 247 0
-249 250 0
-251 250 0
249 251 -250 0
6 -250 0
-6 250 0
-252 253 0
253 -254 0
252 254 -253 0
249 -253 0
-249 253 0
-255 256 0
256 -257 0
255 257 -256 0
252 -256 0
-252 256 0
255 -258 0
-255 258 0
-259 260 0
260 -261 0
259 261 -260 0
7 -260 0
-7 260 0
-262 263 0
-264 263 0
262 264 -263 0
259 -263 0
-259 263 0
-265 266 0
266 -267 0
265 267 -266 0
262 -266 0
-262 266 0
-268 269 0
-270 269 0
268 270 -269 0
265 -269 0
-265 269 0
-271 272 0
-273 272 0
271 273 -272 0
268 -272 0
-268 272 0
-274 275 0
-276 275 0
274 276 -275 0
271 -275 0
-271 275 0
-277 278 0
-279 278 0
277 279 -278 0
274 -278 0
-274 278 0
-280 281 0
281 -282 0
280 282 -281 0
277 -281 0
-277 281 0
-273 283 0
-276 283 0
-279 283 0
-282 283 0
283 -284 0
273 276 279 282 284 -283 0
280 -283 0
-280 283 0
-285 286 0
-287 286 0
285 287 -286 0
8 -286 0
-8 286 0
-288 289 0
-290 289 0
288 290 -289 0
285 -289 0
-285 289 0
-291 292 0
-293 292 0
291 293 -292 0
288 -292 0
-288 292 0
-294 295 0
295 -296 0
294 296 -295 0
291 -295 0
-291 295 0
-297 298 0
-299 298 0
297 299 -298 0
294 -298 0
-294 298 0
-300 301 0
-302 301 0
300 302 -301 0
297 -301 0
-297 301 0
-303 304 0
304 -305 0
303 305 -304 0
300 -304 0
-300 304 0
-306 307 0
-308 307 0
306 308 -307 0
303 -307 0
-303 307 0
-309 310 0
310 -311 0
309 311 -310 0
306 -310 0
-306 310 0
-305 312 0
-308 312 0
-311 312 0
312 -313 0
305 308 311 313 -312 0
309 -312 0
-309 312 0
-314 315 0
315 -316 0
314 316 -315 0
9 -315 0
-9 315 0
-317 318 0
318 -319 0
317 319 -318 0
314 -318 0
-314 318 0
-320 321 0
-322 321 0
320 322 -321 0
317 -321 0
-317 321 0
-323 324 0
-325 324 0
323 325 -324 0
320 -324 0
-320 324 0
-326 327 0
-328 327 0
326 328 -327 0
323 -327 0
-323 327 0
-329 330 0
330 -331 0
329 331 -330 0
326 -330 0
-326 330 0
-332 333 0
-334 333 0
332 334 -333 0
329 -333 0
-329 333 0
-335 336 0
-337 336 0
335 337 -336 0
332 -336 0
-332 336 0
-338 339 0
-340 339 0
338 340 -339 0
335 -339 0
-335 339 0
-341 342 0
342 -343 0
341 343 -342 0
338 -342 0
-338 342 0
-331 344 0
-334 344 0
-337 344 0
-340 344 0
-343 344 0
344 -345 0
346 0
341 -344 0
-341 344 0
-347 348 0
348 -349 0
347 349 -348 0
10 -348 0
-10 348 0
-350 351 0
-352 351 0
350 352 -351 0
347 -351 0
-347 351 0
-353 354 0
-355 354 0
353 355 -354 0
350 -354 0
-350 354 0
-356 357 0
357 -358 0
356 358 -357 0
353 -357 0
-353 357 0
-359 360 0
360 -361 0
359 361 -360 0
356 -360 0
-356 360 0
-362 363 0
363 -364 0
362 364 -363 0
359 -363 0
-359 363 0
-365 366 0
366 -367 0
365 367 -366 0
362 -366 0
-362 366 0
-361 368 0
-364 368 0
-367 368 0
-369 368 0
361 364 367 369 -368 0
365 -368 0
-365 368 0
-370 371 0
-372 371 0
370 372 -371 0
11 -371 0
-11 371 0
-373 374 0
-375 374 0
373 375 -374 0
370 -374 0
-370 374 0
-376 377 0
377 -378 0
376 378 -377 0
373 -377 0
-373 377 0
-379 380 0
-381 380 0
379 381 -380 0
376 -380 0
-376 380 0
-382 383 0
383 -384 0
382 384 -383 0
379 -383 0
-379 383 0
-375 385 0
-378 385 0
-381 385 0
-384 385 0
385 -386 0
387 0
382 -385 0
-382 385 0
-388 389 0
389 -390 0
388 390 -389 0
12 -389 0
-12 389 0
-391 392 0
392 -393 0
391 393 -392 0
388 -392 0
-388 392 0
-394 395 0
395 -396 0
394 396 -395 0
391 -395 0
-391 395 0
-397 398 0
-399 398 0
397 399 -398 0
394 -398 0
-394 398 0
-400 401 0
401 -402 0
400 402 -401 0
397 -401 0
-397 401 0
-403 404 0
-405 404 0
403 405 -404 0
400 -404 0
-400 404 0
-393 406 0
-396 406 0
-399 406 0
-402 406 0
-405 406 0
-407 406 0
408 0
403 -406 0
-403 406 0
-409 410 0
410 -411 0
409 411 -410 0
13 -410 0
-13 410 0
-412 413 0
413 -414 0
412 414 -413 0
409 -413 0
-409 413 0
-415 416 0
416 -417 0
415 417 -416 0
412 -416 0
-412 416 0
-418 419 0
419 -420 0
418 420 -419 0
415 -419 0
-415 419 0
-421 422 0
-423 422 0
421 423 -422 0
418 -422 0
-418 422 0
-424 425 0
-426 425 0
424 426 -425 0
421 -425 0
-421 425 0
-427 428 0
-429 428 0
427 429 -428 0
424 -428 0
-424 428 0
-430 431 0
-432 431 0
430 432 -431 0
427 -431 0
-427 431 0
-426 433 0
-429 433 0
-432 433 0
433 -434 0
426 429 432 434 -433 0
430 -433 0
-430 433 0
-435 436 0
436 -437 0
435 437 -436 0
14 -436 0
-14 436 0
-438 439 0
-440 439 0
438 440 -439 0
435 -439 0
-435 439 0
-441 442 0
-443 442 0
441 443 -442 0
438 -442 0
-438 442 0
-444 445 0
445 -446 0
444 446 -445 0
441 -445 0
-441 445 0
-447 448 0
-449 448 0
447 449 -448 0
444 -448 0
-444 448 0
-450 451 0
-452 451 0
450 452 -451 0
447 -451 0
-447 451 0
-453 454 0
454 -455 0
453 455 -454 0
450 -454 0
-450 454 0
-456 457 0
-458 457 0
456 458 -457 0
453 -457 0
-453 457 0
-459 460 0
460 -461 0
459 461 -460 0
456 -460 0
-456 460 0
-452 462 0
-455 462 0
-458 462 0
-461 462 0
462 -463 0
464 0
459 -462 0
-459 462 0
-465 466 0
466 -467 0
465 467 -466 0
15 -466 0
-15 466 0
-468 469 0
469 -470 0
468 470 -469 0
465 -469 0
-465 469 0
-471 472 0
472 -473 0
471 473 -472 0
468 -472 0
-468 472 0
-474 475 0
-476 475 0
474 476 -475 0
471 -475 0
-471 475 0
-477 478 0
-479 478 0
477 479 -478 0
474 -478 0
-474 478 0
-480 481 0
-482 481 0
480 482 -481 0
477 -481 0
-477 481 0
-483 484 0
-485 484 0
483 485 -484 0
480 -484 0
-480 484 0
-486 487 0
487 -488 0
486 488 -487 0
483 -487 0
-483 487 0
-489 490 0
490 -491 0
489 491 -490 0
486 -490 0
-486 490 0
-492 493 0
-494 493 0
492 494 -493 0
489 -493 0
-489 493 0
-495 496 0
-497 496 0
495 497 -496 0
492 -496 0
-492 496 0
-485 498 0
-488 498 0
-491 498 0
-494 498 0
-497 498 0
498 -499 0
500 0
495 -498 0
-495 498 0
-501 502 0
-503 502 0
501 503 -502 0
16 -502 0
-16 502 0
-504 505 0
-506 505 0
504 506 -505 0
501 -505 0
-501 505 0
-507 508 0
-509 508 0
507 509 -508 0
504 -508 0
-504 508 0
-510 511 0
-512 511 0
510 512 -511 0
507 -511 0
-507 511 0
-513 514 0
514 -515 0
513 515 -514 0
510 -514 0
-510 514 0
-516 517 0
-518 517 0
516 518 -517 0
513 -517 0
-513 517 0
-519 520 0
-521 520 0
519 521 -520 0
516 -520 0
-516 520 0
-515 522 0
-518 522 0
-521 522 0
522 -523 0
515 518 521 523 -522 0
519 -522 0
-519 522 0
-524 525 0
-526 525 0
524 526 -525 0
17 -525 0
-17 525 0
-527 528 0
-529 528 0
527 529 -528 0
524 -528 0
-524 528 0
-530 531 0
531 -532 0
530 532 -531 0
527 -531 0
-527 531 0
-533 534 0
534 -535 0
533 535 -534 0
530 -534 0
-530 534 0
-536 537 0
537 -538 0
536 538 -537 0
533 -537 0
-533 537 0
-539 540 0
540 -541 0
539 541 -540 0
536 -540 0
-536 540 0
-542 543 0
543 -544 0
542 544 -543 0
539 -543 0
-539 543 0
-545 546 0
546 -547 0
545 547 -546 0
542 -546 0
-542 546 0
-535 548 0
-538 548 0
-541 548 0
-544 548 0
-547 548 0
-549 548 0
550 0
545 -548 0
-545 548 0
-551 552 0
-553 552 0
551 553 -552 0
18 -552 0
-18 552 0
-554 555 0
555 -556 0
554 556 -555 0
551 -555 0
-551 555 0
-557 558 0
558 -559 0
557 559 -558 0
554 -558 0
-554 558 0
-560 561 0
-562 561 0
560 562 -561 0
557 -561 0
-557 561 0
-563 564 0
-565 564 0
563 565 -564 0
560 -564 0
-560 564 0
-566 567 0
-568 567 0
566 568 -567 0
563 -567 0
-563 567 0
-569 570 0
-571 570 0
569 571 -570 0
566 -570 0
-566 570 0
-572 573 0
-574 573 0
572 574 -573 0
569 -573 0
-569 573 0
-575 576 0
576 -577 0
575 577 -576 0
572 -576 0
-572 576 0
-578 579 0
-580 579 0
578 580 -579 0
575 -579 0
-575 579 0
-568 581 0
-571 581 0
-574 581 0
-577 581 0
-580 581 0
581 -582 0
583 0
578 -581 0
-578 581 0
-584 585 0
-586 585 0
584 586 -585 0
19 -585 0
-19 585 0
-587 588 0
-589 588 0
587 589 -588 0
584 -588 0
-584 588 0
-590 591 0
-592 591 0
590 592 -591 0
587 -591 0
-587 591 0
-593 594 0
-595 594 0
593 595 -594 0
590 -594 0
-590 594 0
-596 597 0
597 -598 0
596 598 -597 0
593 -597 0
-593 597 0
-599 600 0
-601 600 0
599 601 -600 0
596 -600 0
-596 600 0
-602 603 0
-604 603 0
602 604 -603 0
599 -603 0
-599 603 0
-605 606 0
-607 606 0
605 607 -606 0
602 -606 0
-602 606 0
-608 609 0
609 -610 0
608 610 -609 0
605 -609 0
-605 609 0
-604 611 0
-607 611 0
-610 611 0
611 -612 0
604 607 610 612 -611 0
608 -611 0
-608 611 0
-613 614 0
614 -615 0
613 615 -614 0
20 -614 0
-20 614 0
-616 617 0
617 -618 0
616 618 -617 0
613 -617 0
-613 617 0
-619 620 0
620 -621 0
619 621 -620 0
616 -620 0
-616 620 0
-622 623 0
-624 623 0
622 624 -623 0
619 -623 0
-619 623 0
-625 626 0
-627 626 0
625 627 -626 0
622 -626 0
-622 626 0
-628 629 0
629 -630 0
628 630 -629 0
625 -629 0
-625 629 0
-631 632 0
-633 632 0
631 633 -632 0
628 -632 0
-628 632 0
-634 635 0
-636 635 0
634 636 -635 0
631 -635 0
-631 635 0
-627 637 0
-630 637 0
-633 637 0
-636 637 0
637 -638 0
639 0
634 -637 0
-634 637 0
-640 641 0
-642 641 0
640 642 -641 0
21 -641 0
-21 641 0
-643 644 0
644 -645 0
643 645 -644 0
640 -644 0
-640 644 0
-646 647 0
-648 647 0
646 648 -647 0
643 -647 0
-643 647 0
-642 649 0
-645 649 0
-648 649 0
-650 649 0
642 645 648 650 -649 0
646 -649 0
-646 649 0
-651 652 0
652 -653 0
651 653 -652 0
22 -652 0
-22 652 0
-654 655 0
-656 655 0
654 656 -655 0
651 -655 0
-651 655 0
-657 658 0
658 -659 0
657 659 -658 0
654 -658 0
-654 658 0
-660 661 0
661 -662 0
660 662 -661 0
657 -661 0
-657 661 0
-663 664 0
-665 664 0
663 665 -664 0
660 -664 0
-660 664 0
-666 667 0
-668 667 0
666 668 -667 0
663 -667 0
-663 667 0
-669 670 0
-671 670 0
669 671 -670 0
666 -670 0
-666 670 0
-672 673 0
673 -674 0
672 674 -673 0
669 -673 0
-669 673 0
-668 675 0
-671 675 0
-674 675 0
675 -676 0
668 671 674 676 -675 0
672 -675 0
-672 675 0
-677 678 0
-679 678 0
677 679 -678 0
23 -678 0
-23 678 0
-680 681 0
-682 681 0
680 682 -681 0
677 -681 0
-677 681 0
-683 684 0
684 -685 0
683 685 -684 0
680 -684 0
-680 684 0
-686 687 0
-688 687 0
686 688 -687 0
683 -687 0
-683 687 0
-689 690 0
690 -691 0
689 691 -690 0
686 -690 0
-686 690 0
-692 693 0
693 -694 0
692 694 -693 0
689 -693 0
-689 693 0
-695 696 0
-697 696 0
695 697 -696 0
692 -696 0
-692 696 0
-698 699 0
-700 699 0
698 700 -699 0
695 -699 0
-695 699 0
-701 702 0
-703 702 0
701 703 -702 0
698 -702 0
-698 702 0
-704 705 0
705 -706 0
704 706 -705 0
701 -705 0
-701 705 0
-707 708 0
708 -709 0
707 709 -708 0
704 -708 0
-704 708 0
-697 710 0
-700 710 0
-703 710 0
-706 710 0
-709 710 0
-711 710 0
712 0
707 -710 0
-707 710 0
-713 714 0
714 -715 0
713 715 -714 0
24 -714 0
-24 714 0
-716 717 0
717 -718 0
716 718 -717 0
713 -717 0
-713 717 0
-719 720 0
720 -721 0
719 721 -720 0
716 -720 0
-716 720 0
-722 723 0
723 -724 0
722 724 -723 0
719 -723 0
-719 723 0
-725 726 0
726 -727 0
725 727 -726 0
722 -726 0
-722 726 0
-728 729 0
-730 729 0
728 730 -729 0
725 -729 0
-725 729 0
-731 732 0
732 -733 0
731 733 -732 0
728 -732 0
-728 732 0
-724 734 0
-727 734 0
-730 734 0
-733 734 0
-735 734 0
736 0
731 -734 0
-731 734 0
-737 738 0
738 -739 0
737 739 -738 0
25 -738 0
-25 738 0
-740 741 0
-742 741 0
740 742 -741 0
737 -741 0
-737 741 0
-743 744 0
744 -745 0
743 745 -744 0
740 -744 0
-740 744 0
-746 747 0
-748 747 0
746 748 -747 0
743 -747 0
-743 747 0
-749 750 0
-751 750 0
749 751 -750 0
746 -750 0
-746 750 0
-745 752 0
-748 752 0
-751 752 0
752 -753 0
745 748 751 753 -752 0
749 -752 0
-749 752 0
-754 755 0
755 -756 0
754 756 -755 0
26 -755 0
-26 755 0
-757 758 0
-759 758 0
757 759 -758 0
754 -758 0
-754 758 0
-760 761 0
761 -762 0
760 762 -761 0
757 -761 0
-757 761 0
-763 764 0
764 -765 0
763 765 -764 0
760 -764 0
-760 764 0
-766 767 0
767 -768 0
766 768 -767 0
763 -767 0
-763 767 0
-769 770 0
770 -771 0
769 771 -770 0
766 -770 0
-766 770 0
-772 773 0
773 -774 0
772 774 -773 0
769 -773 0
-769 773 0
-775 776 0
776 -777 0
775 777 -776 0
772 -776 0
-772 776 0
-778 779 0
779 -780 0
778 780 -779 0
775 -779 0
-775 779 0
-781 782 0
782 -783 0
781 783 -782 0
778 -782 0
-778 782 0
-774 784 0
-777 784 0
-780 784 0
-783 784 0
-785 784 0
786 0
781 -784 0
-781 784 0
-787 788 0
-789 788 0
787 789 -788 0
27 -788 0
-27 788 0
-790 791 0
-792 791 0
790 792 -791 0
787 -791 0
-787 791 0
-793 794 0
794 -795 0
793 795 -794 0
790 -794 0
-790 794 0
-789 796 0
-792 796 0
-795 796 0
796 -797 0
789 792 795 797 -796 0
793 -796 0
-793 796 0
-798 799 0
-800 799 0
798 800 -799 0
28 -799 0
-28 799 0
-801 802 0
-803 802 0
801 803 -802 0
798 -802 0
-798 802 0
-804 805 0
805 -806 0
804 806 -805 0
801 -805 0
-801 805 0
-807 808 0
-809 808 0
807 809 -808 0
804 -808 0
-804 808 0
-810 811 0
-812 811 0
810 812 -811 0
807 -811 0
-807 811 0
-813 814 0
-815 814 0
813 815 -814 0
810 -814 0
-810 814 0
-816 817 0
817 -818 0
816 818 -817 0
813 -817 0
-813 817 0
-819 820 0
820 -821 0
819 821 -820 0
816 -820 0
-816 820 0
-822 823 0
823 -824 0
822 824 -823 0
819 -823 0
-819 823 0
-825 826 0
826 -827 0
825 827 -826 0
822 -826 0
-822 826 0
-815 828 0
-818 828 0
-821 828 0
-824 828 0
-827 828 0
828 -829 0
830 0
825 -828 0
-825 828 0
-831 832 0
-833 832 0
831 833 -832 0
29 -832 0
-29 832 0
-834 835 0
835 -836 0
834 836 -835 0
831 -835 0
-831 835 0
-837 838 0
838 -839 0
837 839 -838 0
834 -838 0
-834 838 0
-840 841 0
-842 841 0
840 842 -841 0
837 -841 0
-837 841 0
-843 844 0
-845 844 0
843 845 -844 0
840 -844 0
-840 844 0
-833 846 0
-836 846 0
-839 846 0
-842 846 0
-845 846 0
-847 846 0
848 0
843 -846 0
-843 846 0
-849 850 0
-851 850 0
849 851 -850 0
30 -850 0
-30 850 0
-852 853 0
853 -854 0
852 854 -853 0
849 -853 0
-849 853 0
-855 856 0
856 -857 0
855 857 -856 0
852 -856 0
-852 856 0
-858 859 0
-860 859 0
858 860 -859 0
855 -859 0
-855 859 0
-861 862 0
-863 862 0
861 863 -862 0
858 -862 0
-858 862 0
-864 865 0
-866 865 0
864 866 -865 0
861 -865 0
-861 865 0
-867 868 0
-869 868 0
867 869 -868 0
864 -868 0
-864 868 0
-857 870 0
-860 870 0
-863 870 0
-866 870 0
-869 870 0
-871 870 0
872 0
867 -870 0
-867 870 0
-873 874 0
874 -875 0
873 875 -874 0
31 -874 0
-31 874 0
-876 877 0
-878 877 0
876 878 -877 0
873 -877 0
-873 877 0
-879 880 0
-881 880 0
879 881 -880 0
876 -880 0
-876 880 0
-882 883 0
883 -884 0
882 884 -883 0
879 -883 0
-879 883 0
-885 886 0
886 -887 0
885 887 -886 0
882 -886 0
-882 886 0
-888 889 0
889 -890 0
888 890 -889 0
885 -889 0
-885 889 0
-891 892 0
892 -893 0
891 893 -892 0
888 -892 0
-888 892 0
-887 894 0
-890 894 0
-893 894 0
-895 894 0
887 890 893 895 -894 0
891 -894 0
-891 894 0
-896 897 0
897 -898 0
896 898 -897 0
32 -897 0
-32 897 0
-899 900 0
900 -901 0
899 901 -900 0
896 -900 0
-896 900 0
-902 903 0
903 -904 0
902 904 -903 0
899 -903 0
-899 903 0
-905 906 0
906 -907 0
905 907 -906 0
902 -906 0
-902 906 0
-908 909 0
909 -910 0
908 910 -909 0
905 -909 0
-905 909 0
-911 912 0
-913 912 0
911 913 -912 0
908 -912 0
-908 912 0
-914 915 0
-916 915 0
914 916 -915 0
911 -915 0
-911 915 0
-910 917 0
-913 917 0
-916 917 0
-918 917 0
910 913 916 918 -917 0
914 -917 0
-914 917 0
-919 920 0
920 -921 0
919 921 -920 0
33 -920 0
-33 920 0
-922 923 0
923 -924 0
922 924 -923 0
919 -923 0
-919 923 0
-925 926 0
-927 926 0
925 927 -926 0
922 -926 0
-922 926 0
-928 929 0
929 -930 0
928 930 -929 0
925 -929 0
-925 929 0
-931 932 0
932 -933 0
931 933 -932 0
928 -932 0
-928 932 0
-934 935 0
935 -936 0
934 936 -935 0
931 -935 0
-931 935 0
-937 938 0
-939 938 0
937 939 -938 0
934 -938 0
-934 938 0
-930 940 0
-933 940 0
-936 940 0
-939 940 0
940 -941 0
942 0
937 -940 0
-937 940 0
-943 944 0
-945 944 0
943 945 -944 0
34 -944 0
-34 944 0
-946 947 0
-948 947 0
946 948 -947 0
943 -947 0
-943 947 0
-949 950 0
-951 950 0
949 951 -950 0
946 -950 0
-946 950 0
-952 953 0
-954 953 0
952 954 -953 0
949 -953 0
-949 953 0
-955 956 0
956 -957 0
955 957 -956 0
952 -956 0
-952 956 0
-958 959 0
-960 959 0
958 960 -959 0
955 -959 0
-955 959 0
-961 962 0
962 -963 0
961 963 -962 0
958 -962 0
-958 962 0
-964 965 0
-966 965 0
964 966 -965 0
961 -965 0
-961 965 0
-967 968 0
-969 968 0
967 969 -968 0
964 -968 0
-964 968 0
-960 970 0
-963 970 0
-966 970 0
-969 970 0
-971 970 0
972 0
967 -970 0
-967 970 0
-973 974 0
974 -975 0
973 975 -974 0
35 -974 0
-35 974 0
-976 977 0
977 -978 0
976 978 -977 0
973 -977 0
-973 977 0
-979 980 0
980 -981 0
979 981 -980 0
976 -980 0
-976 980 0
-982 983 0
-984 983 0
982 984 -983 0
979 -983 0
-979 983 0
-985 986 0
-987 986 0
985 987 -986 0
982 -986 0
-982 986 0
-988 989 0
-990 989 0
988 990 -989 0
985 -989 0
-985 989 0
-991 992 0
-993 992 0
991 993 -992 0
988 -992 0
-988 992 0
-994 995 0
-996 995 0
994 996 -995 0
991 -995 0
-991 995 0
-997 998 0
-999 998 0
997 999 -998 0
994 -998 0
-994 998 0
-993 1000 0
-996 1000 0
-999 1000 0
1000 -1001 0
993 996 999 1001 -1000 0
997 -1000 0
-997 1000 0
-1002 1003 0
-1004 1003 0
1002 1004 -1003 0
36 -1003 0
-36 1003 0
-1005 1006 0
1006 -1007 0
1005 1007 -1006 0
1002 -1006 0
-1002 1006 0
-1008 1009 0
1009 -1010 0
1008 1010 -1009 0
1005 -1009 0
-1005 1009 0
-1011 1012 0
-1013 1012 0
1011 1013 -1012 0
1008 -1012 0
-1008 1012 0
-1014 1015 0
1015 -1016 0
1014 1016 -1015 0
1011 -1015 0
-1011 1015 0
-1017 1018 0
1018 -1019 0
1017 1019 -1018 0
1014 -1018 0
-1014 1018 0
-1020 1021 0
-1022 1021 0
1020 1022 -1021 0
1017 -1021 0
-1017 1021 0
-1023 1024 0
-1025 1024 0
1023 1025 -1024 0
1020 -1024 0
-1020 1024 0
-1016 1026 0
-1019 1026 0
-1022 1026 0
-1025 1026 0
1026 -1027 0
1028 0
1023 -1026 0
-1023 1026 0
-1029 1030 0
1030 -1031 0
1029 1031 -1030 0
37 -1030 0
-37 1030 0
-1032 1033 0
-1034 1033 0
1032 1034 -1033 0
1029 -1033 0
-1029 1033 0
-1035 1036 0
-1037 1036 0
1035 1037 -1036 0
1032 -1036 0
-1032 1036 0
-1038 1039 0
-1040 1039 0
1038 1040 -1039 0
1035 -1039 0
-1035 1039 0
-1041 1042 0
-1043 1042 0
1041 1043 -1042 0
1038 -1042 0
-1038 1042 0
-1044 1045 0
-1046 1045 0
1044 1046 -1045 0
1041 -1045 0
-1041 1045 0
-1047 1048 0
-1049 1048 0
1047 1049 -1048 0
1044 -1048 0
-1044 1048 0
-1050 1051 0
1051 -1052 0
1050 1052 -1051 0
1047 -1051 0
-1047 1051 0
-1053 1054 0
-1055 1054 0
1053 1055 -1054 0
1050 -1054 0
-1050 1054 0
-1043 1056 0
-1046 1056 0
-1049 1056 0
-1052 1056 0
-1055 1056 0
1056 -1057 0
1058 0
1053 -1056 0
-1053 1056 0
-1059 1060 0
-1061 1060 0
1059 1061 -1060 0
38 -1060 0
-38 1060 0
-1062 1063 0
1063 -1064 0
1062 1064 -1063 0
1059 -1063 0
-1059 1063 0
-1065 1066 0
-1067 1066 0
1065 1067 -1066 0
1062 -1066 0
-1062 1066 0
-1068 1069 0
-1070 1069 0
1068 1070 -1069 0
1065 -1069 0
-1065 1069 0
-1071 1072 0
-1073 1072 0
1071 1073 -1072 0
1068 -1072 0
-1068 1072 0
-1074 1075 0
-1076 1075 0
1074 1076 -1075 0
1071 -1075 0
-1071 1075 0
-1077 1078 0
1078 -1079 0
1077 1079 -1078 0
1074 -1078 0
-1074 1078 0
-1073 1080 0
-1076 1080 0
-1079 1080 0
1080 -1081 0
1073 1076 1079 1081 -1080 0
1077 -1080 0
-1077 1080 0
-1082 1083 0
1083 -1084 0
1082 1084 -1083 0
39 -1083 0
-39 1083 0
-1085 1086 0
-1087 1086 0
1085 1087 -1086 0
1082 -1086 0
-1082 1086 0
-1088 1089 0
-1090 1089 0
1088 1090 -1089 0
1085 -1089 0
-1085 1089 0
-1091 1092 0
1092 -1093 0
1091 1093 -1092 0
1088 -1092 0
-1088 1092 0
-1094 1095 0
1095 -1096 0
1094 1096 -1095 0
1091 -1095 0
-1091 1095 0
-1097 1098 0
1098 -1099 0
1097 1099 -1098 0
1094 -1098 0
-1094 1098 0
-1100 1101 0
-1102 1101 0
1100 1102 -1101 0
1097 -1101 0
-1097 1101 0
-1103 1104 0
1104 -1105 0
1103 1105 -1104 0
1100 -1104 0
-1100 1104 0
-1106 1107 0
-1108 1107 0
1106 1108 -1107 0
1103 -1107 0
-1103 1107 0
-1102 1109 0
-1105 1109 0
-1108 1109 0
-1110 1109 0
1102 1105 1108 1110 -1109 0
1106 -1109 0
-1106 1109 0
-1111 1112 0
1112 -1113 0
1111 1113 -1112 0
40 -1112 0
-40 1112 0
-1114 1115 0
1115 -1116 0
1114 1116 -1115 0
1111 -1115 0
-1111 1115 0
-1116 1117 0
-1118 1117 0
1116 1118 -1117 0
1114 -1117 0
-1114 1117 0
-1119 1120 0
-1121 1120 0
1119 1121 -1120 0
41 -1120 0
-41 1120 0
-1122 1123 0
1123 -1124 0
1122 1124 -1123 0
1119 -1123 0
-1119 1123 0
-1125 1126 0
1126 -1127 0
1125 1127 -1126 0
1122 -1126 0
-1122 1126 0
-1128 1129 0
1129 -1130 0
1128 1130 -1129 0
1125 -1129 0
-1125 1129 0
-1131 1132 0
-1133 1132 0
1131 1133 -1132 0
1128 -1132 0
-1128 1132 0
-1127 1134 0
-1130 1134 0
-1133 1134 0
-1135 1134 0
1127 1130 1133 1135 -1134 0
1131 -1134 0
-1131 1134 0
-1136 1137 0
1137 -1138 0
1136 1138 -1137 0
42 -1137 0
-42 1137 0
-1139 1140 0
-1141 1140 0
1139 1141 -1140 0
1136 -1140 0
-1136 1140 0
-1142 1143 0
1143 -1144 0
1142 1144 -1143 0
1139 -1143 0
-1139 1143 0
-1145 1146 0
-1147 1146 0
1145 1147 -1146 0
1142 -1146 0
-1142 1146 0
-1148 1149 0
1149 -1150 0
1148 1150 -1149 0
1145 -1149 0
-1145 1149 0
-1151 1152 0
-1153 1152 0
1151 1153 -1152 0
1148 -1152 0
-1148 1152 0
-1154 1155 0
1155 -1156 0
1154 1156 -1155 0
1151 -1155 0
-1151 1155 0
-1157 1158 0
1158 -1159 0
1157 1159 -1158 0
1154 -1158 0
-1154 1158 0
-1153 1160 0
-1156 1160 0
-1159 1160 0
-1161 1160 0
1153 1156 1159 1161 -1160 0
1157 -1160 0
-1157 1160 0
-1162 1163 0
1163 -1164 0
1162 1164 -1163 0
43 -1163 0
-43 1163 0
-1165 1166 0
1166 -1167 0
1165 1167 -1166 0
1162 -1166 0
-1162 1166 0
-1168 1169 0
-1170 1169 0
1168 1170 -1169 0
1165 -1169 0
-1165 1169 0
-1171 1172 0
-1173 1172 0
1171 1173 -1172 0
1168 -1172 0
-1168 1172 0
-1174 1175 0
-1176 1175 0
1174 1176 -1175 0
1171 -1175 0
-1171 1175 0
-1177 1178 0
-1179 1178 0
1177 1179 -1178 0
1174 -1178 0
-1174 1178 0
-1180 1181 0
-1182 1181 0
1180 1182 -1181 0
1177 -1181 0
-1177 1181 0
-1176 1183 0
-1179 1183 0
-1182 1183 0
1183 -1184 0
1176 1179 1182 1184 -1183 0
1180 -1183 0
-1180 1183 0
-1185 1186 0
-1187 1186 0
1185 1187 -1186 0
44 -1186 0
-44 1186 0
-1188 1189 0
1189 -1190 0
1188 1190 -1189 0
1185 -1189 0
-1185 1189 0
-1191 1192 0
1192 -1193 0
1191 1193 -1192 0
1188 -1192 0
-1188 1192 0
-1194 1195 0
-1196 1195 0
1194 1196 -1195 0
1191 -1195 0
-1191 1195 0
-1197 1198 0
1198 -1199 0
1197 1199 -1198 0
1194 -1198 0
-1194 1198 0
-1190 1200 0
-1193 1200 0
-1196 1200 0
-1199 1200 0
1200 -1201 0
1202 0
1197 -1200 0
-1197 1200 0
-1203 1204 0
-1205 1204 0
1203 1205 -1204 0
45 -1204 0
-45 1204 0
-1206 1207 0
1207 -1208 0
1206 1208 -1207 0
1203 -1207 0
-1203 1207 0
-1209 1210 0
-1211 1210 0
1209 1211 -1210 0
1206 -1210 0
-1206 1210 0
-1212 1213 0
1213 -1214 0
1212 1214 -1213 0
1209 -1213 0
-1209 1213 0
-1215 1216 0
1216 -1217 0
1215 1217 -1216 0
1212 -1216 0
-1212 1216 0
-1218 1219 0
-1220 1219 0
1218 1220 -1219 0
1215 -1219 0
-1215 1219 0
-1221 1222 0
1222 -1223 0
1221 1223 -1222 0
1218 -1222 0
-1218 1222 0
-1214 1224 0
-1217 1224 0
-1220 1224 0
-1223 1224 0
1224 -1225 0
1226 0
1221 -1224 0
-1221 1224 0
-1227 1228 0
1228 -1229 0
1227 1229 -1228 0
46 -1228 0
-46 1228 0
-1230 1231 0
1231 -1232 0
1230 1232 -1231 0
1227 -1231 0
-1227 1231 0
-1233 1234 0
1234 -1235 0
1233 1235 -1234 0
1230 -1234 0
-1230 1234 0
-1236 1237 0
-1238 1237 0
1236 1238 -1237 0
1233 -1237 0
-1233 1237 0
-1239 1240 0
-1241 1240 0
1239 1241 -1240 0
1236 -1240 0
-1236 1240 0
-1242 1243 0
-1244 1243 0
1242 1244 -1243 0
1239 -1243 0
-1239 1243 0
-1241 1245 0
-1244 1245 0
1245 -1246 0
1241 1244 1246 -1245 0
1242 -1245 0
-1242 1245 0
-1247 1248 0
-1249 1248 0
1247 1249 -1248 0
47 -1248 0
-47 1248 0
-1250 1251 0
-1252 1251 0
1250 1252 -1251 0
1247 -1251 0
-1247 1251 0
-1253 1254 0
-1255 1254 0
1253 1255 -1254 0
1250 -1254 0
-1250 1254 0
-1256 1257 0
1257 -1258 0
1256 1258 -1257 0
1253 -1257 0
-1253 1257 0
-1259 1260 0
-1261 1260 0
1259 1261 -1260 0
1256 -1260 0
-1256 1260 0
-1262 1263 0
-1264 1263 0
1262 1264 -1263 0
1259 -1263 0
-1259 1263 0
-1265 1266 0
1266 -1267 0
1265 1267 -1266 0
1262 -1266 0
-1262 1266 0
-1268 1269 0
-1270 1269 0
1268 1270 -1269 0
1265 -1269 0
-1265 1269 0
-1271 1272 0
1272 -1273 0
1271 1273 -1272 0
1268 -1272 0
-1268 1272 0
-1261 1274 0
-1264 1274 0
-1267 1274 0
-1270 1274 0
-1273 1274 0
-1275 1274 0
1276 0
1271 -1274 0
-1271 1274 0
-1277 1278 0
1278 -1279 0
1277 1279 -1278 0
48 -1278 0
-48 1278 0
-1280 1281 0
-1282 1281 0
1280 1282 -1281 0
1277 -1281 0
-1277 1281 0
-1283 1284 0
1284 -1285 0
1283 1285 -1284 0
1280 -1284 0
-1280 1284 0
-1286 1287 0
-1288 1287 0
1286 1288 -1287 0
1283 -1287 0
-1283 1287 0
-1289 1290 0
1290 -1291 0
1289 1291 -1290 0
1286 -1290 0
-1286 1290 0
-1292 1293 0
1293 -1294 0
1292 1294 -1293 0
1289 -1293 0
-1289 1293 0
-1295 1296 0
-1297 1296 0
1295 1297 -1296 0
1292 -1296 0
-1292 1296 0
-1298 1299 0
-1300 1299 0
1298 1300 -1299 0
1295 -1299 0
-1295 1299 0
-1291 1301 0
-1294 1301 0
-1297 1301 0
-1300 1301 0
1301 -1302 0
1303 0
1298 -1301 0
-1298 1301 0
-1304 1305 0
1305 -1306 0
1304 1306 -1305 0
49 -1305 0
-49 1305 0
-1307 1308 0
-1309 1308 0
1307 1309 -1308 0
1304 -1308 0
-1304 1308 0
-1310 1311 0
-1312 1311 0
1310 1312 -1311 0
1307 -1311 0
-1307 1311 0
-1313 1314 0
-1315 1314 0
1313 1315 -1314 0
1310 -1314 0
-1310 1314 0
-1316 1317 0
1317 -1318 0
1316 1318 -1317 0
1313 -1317 0
-1313 1317 0
1316 -1319 0
-1316 1319 0
-1320 1321 0
1321 -1322 0
1320 1322 -1321 0
50 -1321 0
-50 1321 0
-1323 1324 0
1324 -1325 0
1323 1325 -1324 0
1320 -1324 0
-1320 1324 0
-1326 1327 0
-1328 1327 0
1326 1328 -1327 0
1323 -1327 0
-1323 1327 0
-1329 1330 0
-1331 1330 0
1329 1331 -1330 0
1326 -1330 0
-1326 1330 0
-1332 1333 0
1333 -1334 0
1332 1334 -1333 0
1329 -1333 0
-1329 1333 0
-1335 1336 0
-1337 1336 0
1335 1337 -1336 0
1332 -1336 0
-1332 1336 0
-1338 1339 0
1339 -1340 0
1338 1340 -1339 0
1335 -1339 0
-1335 1339 0
-1341 1342 0
1342 -1343 0
1341 1343 -1342 0
1338 -1342 0
-1338 1342 0
-1344 1345 0
1345 -1346 0
1344 1346 -1345 0
1341 -1345 0
-1341 1345 0
-1337 1347 0
-1340 1347 0
-1343 1347 0
-1346 1347 0
-1348 1347 0
1349 0
1344 -1347 0
-1344 1347 0
51 -1350 0
-51 1350 0
52 -1351 0
-52 1351 0
53 -1352 0
-53 1352 0
54 -1353 0
-54 1353 0
55 -1354 0
-55 1354 0
56 -1355 0
-56 1355 0
57 -1356 0
-57 1356 0
58 -1357 0
-58 1357 0
59 -1358 0
-59 1358 0
60 -1359 0
-60 1359 0
61 -1360 0
-61 1360 0
62 -1361 0
-62 1361 0
63 -1362 0
-63 1362 0
64 -1363 0
-64 1363 0
65 -1364 0
-65 1364 0
66 -1365 0
-66 1365 0
67 -1366 0
-67 1366 0
68 -1367 0
-68 1367 0
69 -1368 0
-69 1368 0
70 -1369 0
-70 1369 0
71 -1370 0
-71 1370 0
72 -1371 0
-72 1371 0
73 -1372 0
-73 1372 0
74 -1373 0
-74 1373 0
75 -1374 0
-75 1374 0
76 -1375 0
-76 1375 0
77 -1376 0
-77 1376 0
78 -1377 0
-78 1377 0
79 -1378 0
-79 1378 0
80 -1379 0
-80 1379 0
81 -1380 0
-81 1380 0
82 -1381 0
-82 1381 0
83 -1382 0
-83 1382 0
84 -1383 0
-84 1383 0
85 -1384 0
-85 1384 0
86 -1385 0
-86 1385 0
87 -1386 0
-87 1386 0
88 -1387 0
-88 1387 0
89 -1388 0
-89 1388 0
90 -1389 0
-90 1389 0
91 -1390 0
-91 1390 0
92 -1391 0
-92 1391 0
93 -1392 0
-93 1392 0
94 -1393 0
-94 1393 0
95 -1394 0
-95 1394 0
96 -1395 0
-96 1395 0
97 -1396 0
-97 1396 0
98 -1397 0
-98 1397 0
99 -1398 0
-99 1398 0
100 -1399 0
-100 1399 0
103 -1400 0
-1400 -106 0
-1400 -109 0
-1400 -112 0
115 -1400 0
118 -1400 0
121 -1400 0
124 -1400 0
127 -1400 0
-1400 -130 0
-1400 -132 0
-1400 -136 0
-1400 -139 0
142 -1400 0
-1400 -145 0
148 -1400 0
151 -1400 0
-1400 -154 0
-1400 -156 0
159 -1400 0
-1400 -162 0
165 -1400 0
168 -1400 0
171 -1400 0
174 -1400 0
-1400 -177 0
-1400 -180 0
-1400 -183 0
186 -1400 0
-1400 -188 0
192 -1400 0
195 -1400 0
198 -1400 0
-1400 -201 0
204 -1400 0
207 -1400 0
-1400 -210 0
-1400 -213 0
-1400 -216 0
219 -1400 0
-1400 -221 0
225 -1400 0
228 -1400 0
-1400 -231 0
234 -1400 0
-1400 -237 0
-1400 -240 0
243 -1400 0
246 -1400 0
-1400 -248 0
-1400 -251 0
254 -1400 0
257 -1400 0
-1400 -258 0
261 -1400 0
-1400 -264 0
267 -1400 0
-1400 -270 0
-1400 -273 0
-1400 -276 0
-1400 -279 0
282 -1400 0
284 -1400 0
-1400 -287 0
-1400 -290 0
-1400 -293 0
296 -1400 0
-1400 -299 0
-1400 -302 0
305 -1400 0
-1400 -308 0
311 -1400 0
313 -1400 0
316 -1400 0
319 -1400 0
-1400 -322 0
-1400 -325 0
-1400 -328 0
331 -1400 0
-1400 -334 0
-1400 -337 0
-1400 -340 0
343 -1400 0
345 -1400 0
349 -1400 0
-1400 -352 0
-1400 -355 0
358 -1400 0
361 -1400 0
364 -1400 0
367 -1400 0
-1400 -369 0
-1400 -372 0
-1400 -375 0
378 -1400 0
-1400 -381 0
384 -1400 0
386 -1400 0
390 -1400 0
393 -1400 0
396 -1400 0
-1400 -399 0
402 -1400 0
-1400 -405 0
-1400 -407 0
411 -1400 0
414 -1400 0
417 -1400 0
420 -1400 0
-1400 -423 0
-1400 -426 0
-1400 -429 0
-1400 -432 0
434 -1400 0
437 -1400 0
-1400 -440 0
-1400 -443 0
446 -1400 0
-1400 -449 0
-1400 -452 0
455 -1400 0
-1400 -458 0
461 -1400 0
463 -1400 0
467 -1400 0
470 -1400 0
473 -1400 0
-1400 -476 0
-1400 -479 0
-1400 -482 0
-1400 -485 0
488 -1400 0
491 -1400 0
-1400 -494 0
-1400 -497 0
499 -1400 0
-1400 -503 0
-1400 -506 0
-1400 -509 0
-1400 -512 0
515 -1400 0
-1400 -518 0
-1400 -521 0
523 -1400 0
-1400 -526 0
-1400 -529 0
532 -1400 0
535 -1400 0
538 -1400 0
541 -1400 0
544 -1400 0
547 -1400 0
-1400 -549 0
-1400 -553 0
556 -1400 0
559 -1400 0
-1400 -562 0
-1400 -565 0
-1400 -568 0
-1400 -571 0
-1400 -574 0
577 -1400 0
-1400 -580 0
582 -1400 0
-1400 -586 0
-1400 -589 0
-1400 -592 0
-1400 -595 0
598 -1400 0
-1400 -601 0
-1400 -604 0
-1400 -607 0
610 -1400 0
612 -1400 0
615 -1400 0
618 -1400 0
621 -1400 0
-1400 -624 0
-1400 -627 0
630 -1400 0
-1400 -633 0
-1400 -636 0
638 -1400 0
-1400 -642 0
645 -1400 0
-1400 -648 0
-1400 -650 0
653 -1400 0
-1400 -656 0
659 -1400 0
662 -1400 0
-1400 -665 0
-1400 -668 0
-1400 -671 0
674 -1400 0
676 -1400 0
-1400 -679 0
-1400 -682 0
685 -1400 0
-1400 -688 0
691 -1400 0
694 -1400 0
-1400 -697 0
-1400 -700 0
-1400 -703 0
706 -1400 0
709 -1400 0
-1400 -711 0
715 -1400 0
718 -1400 0
721 -1400 0
724 -1400 0
727 -1400 0
-1400 -730 0
733 -1400 0
-1400 -735 0
739 -1400 0
-1400 -742 0
745 -1400 0
-1400 -748 0
-1400 -751 0
753 -1400 0
756 -1400 0
-1400 -759 0
762 -1400 0
765 -1400 0
768 -1400 0
771 -1400 0
774 -1400 0
777 -1400 0
780 -1400 0
783 -1400 0
-1400 -785 0
-1400 -789 0
-1400 -792 0
795 -1400 0
797 -1400 0
-1400 -800 0
-1400 -803 0
806 -1400 0
-1400 -809 0
-1400 -812 0
-1400 -815 0
818 -1400 0
821 -1400 0
824 -1400 0
827 -1400 0
829 -1400 0
-1400 -833 0
836 -1400 0
839 -1400 0
-1400 -842 0
-1400 -845 0
-1400 -847 0
-1400 -851 0
854 -1400 0
857 -1400 0
-1400 -860 0
-1400 -863 0
-1400 -866 0
-1400 -869 0
-1400 -871 0
875 -1400 0
-1400 -878 0
-1400 -881 0
884 -1400 0
887 -1400 0
890 -1400 0
893 -1400 0
-1400 -895 0
898 -1400 0
901 -1400 0
904 -1400 0
907 -1400 0
910 -1400 0
-1400 -913 0
-1400 -916 0
-1400 -918 0
921 -1400 0
924 -1400 0
-1400 -927 0
930 -1400 0
933 -1400 0
936 -1400 0
-1400 -939 0
941 -1400 0
-1400 -945 0
-1400 -948 0
-1400 -951 0
-1400 -954 0
957 -1400 0
-1400 -960 0
963 -1400 0
-1400 -966 0
-1400 -969 0
-1400 -971 0
975 -1400 0
978 -1400 0
981 -1400 0
-1400 -984 0
-1400 -987 0
-1400 -990 0
-1400 -993 0
-1400 -996 0
-1400 -999 0
1001 -1400 0
-1400 -1004 0
1007 -1400 0
1010 -1400 0
-1400 -1013 0
1016 -1400 0
1019 -1400 0
-1400 -1022 0
-1400 -1025 0
1027 -1400 0
1031 -1400 0
-1400 -1034 0
-1400 -1037 0
-1400 -1040 0
-1400 -1043 0
-1400 -1046 0
-1400 -1049 0
1052 -1400 0
-1400 -1055 0
1057 -1400 0
-1400 -1061 0
1064 -1400 0
-1400 -1067 0
-1400 -1070 0
-1400 -1073 0
-1400 -1076 0
1079 -1400 0
1081 -1400 0
1084 -1400 0
-1400 -1087 0
-1400 -1090 0
1093 -1400 0
1096 -1400 0
1099 -1400 0
-1400 -1102 0
1105 -1400 0
-1400 -1108 0
-1400 -1110 0
1113 -1400 0
1116 -1400 0
-1400 -1118 0
-1400 -1121 0
1124 -1400 0
1127 -1400 0
1130 -1400 0
-1400 -1133 0
-1400 -1135 0
1138 -1400 0
-1400 -1141 0
1144 -1400 0
-1400 -1147 0
1150 -1400 0
-1400 -1153 0
1156 -1400 0
1159 -1400 0
-1400 -1161 0
1164 -1400 0
1167 -1400 0
-1400 -1170 0
-1400 -1173 0
-1400 -1176 0
-1400 -1179 0
-1400 -1182 0
1184 -1400 0
-1400 -1187 0
1190 -1400 0
1193 -1400 0
-1400 -1196 0
1199 -1400 0
1201 -1400 0
-1400 -1205 0
1208 -1400 0
-1400 -1211 0
1214 -1400 0
1217 -1400 0
-1400 -1220 0
1223 -1400 0
1225 -1400 0
1229 -1400 0
1232 -1400 0
1235 -1400 0
-1400 -1238 0
-1400 -1241 0
-1400 -1244 0
1246 -1400 0
-1400 -1249 0
-1400 -1252 0
-1400 -1255 0
1258 -1400 0
-1400 -1261 0
-1400 -1264 0
1267 -1400 0
-1400 -1270 0
1273 -1400 0
-1400 -1275 0
1279 -1400 0
-1400 -1282 0
1285 -1400 0
-1400 -1288 0
1291 -1400 0
1294 -1400 0
-1400 -1297 0
-1400 -1300 0
1302 -1400 0
1306 -1400 0
-1400 -1309 0
-1400 -1312 0
-1400 -1315 0
1318 -1400 0
-1400 -1319 0
1322 -1400 0
1325 -1400 0
-1400 -1328 0
-1400 -1331 0
1334 -1400 0
-1400 -1337 0
1340 -1400 0
1343 -1400 0
1346 -1400 0
-1400 -1348 0
-1400 -1350 0
-1400 -1351 0
-1400 -1352 0
-1400 -1353 0
-1400 -1354 0
-1400 -1355 0
-1400 -1356 0
-1400 -1357 0
-1400 -1358 0
-1400 -1359 0
-1400 -1360 0
-1400 -1361 0
-1400 -1362 0
-1400 -1363 0
-1400 -1364 0
-1400 -1365 0
-1400 -1366 0
-1400 -1367 0
-1400 -1368 0
-1400 -1369 0
-1400 -1370 0
-1400 -1371 0
-1400 -1372 0
-1400 -1373 0
-1400 -1374 0
-1400 -1375 0
-1400 -1376 0
-1400 -1377 0
-1400 -1378 0
-1400 -1379 0
-1400 -1380 0
-1400 -1381 0
-1400 -1382 0
-1400 -1383 0
-1400 -1384 0
-1400 -1385 0
-1400 -1386 0
-1400 -1387 0
-1400 -1388 0
-1400 -1389 0
-1400 -1390 0
-1400 -1391 0
-1400 -1392 0
-1400 -1393 0
-1400 -1394 0
-1400 -1395 0
-1400 -1396 0
-1400 -1397 0
-1400 -1398 0
-1400 -1399 0
1400 0
-1401 0
-1402 0
-1403 0
-1404 0
-1405 0
-1406 0
-1407 0
-1408 0
